c ---- [ banner ] ------------------------------------------------------------
c
c Kissat SAT Solver
c 
c Copyright (c) 2021-2022 Armin Biere University of Freiburg
c Copyright (c) 2019-2021 Armin Biere Johannes Kepler University Linz
c 
c Version 3.0.0 97917ddf2b12adc6f63c7b2a5a403a1ee7d81836
c gcc (Ubuntu 9.4.0-1ubuntu1~20.04.1) 9.4.0 -W -Wall -O3 -DNDEBUG
c Fri Oct 7 14:23:58 PDT 2022 Linux jap-Lenovo-Yoga-C740-15IML 5.15.0-48-generic x86_64
c
c ---- [ parsing ] -----------------------------------------------------------
c
c opened and reading DIMACS file:
c
c   Pigeon9Holes7
c
c parsed 'p cnf 63 261' header
c closing input after reading 2659 bytes (3 KB)
c finished parsing after 0.00 seconds
c
c ---- [ solving ] -----------------------------------------------------------
c
c  seconds switched rate      trail  variables
c         MB reductions conflicts glue   remaining
c          level restarts redundant irredundant
c
c *  0.00  1 0 0 0  0 0   0   0 0% 0 261 63 98%
c {  0.00  1 0 0 0  0 0   0   0 0% 0 261 63 98%
c u  0.01  3 8 0 0 80 2 591 124 95% 5 261 63 98%
c v  0.01  3 8 0 0 80 2 591 102 95% 5 261 63 98%
c -  0.01  3 7 0 1 85 2 1003 431 95% 5 261 63 98%
c }  0.01  3 7 1 1 85 2 1003 431 95% 5 261 63 98%
c [  0.01  3 0 1 1 85 0 1003 431 0% 0 261 63 98%
c B  0.01  3 0 1 1 85 0 1003 431 0% 0 261 63 98%
c i  0.01  3 9 1 1 85 1 1179 606 96% 4 261 62 97%
c ]  0.02  3 14 2 1 85 1 1896 657 93% 8 261 62 97%
c {  0.02  3 7 2 1 85 2 1896 657 95% 5 261 62 97%
c -  0.02  3 8 2 2 124 2 2004 325 95% 5 253 62 97%
c u  0.02  3 8 2 2 150 2 2413 611 94% 5 253 62 97%
c v  0.02  3 8 2 2 150 2 2413 587 94% 5 253 62 97%
c i  0.02  3 7 2 2 150 2 2556 729 94% 5 253 61 95%
c }  0.03  3 8 3 2 151 2 2625 798 94% 5 253 61 95%
c [  0.03  3 14 3 2 151 1 2625 798 93% 8 253 61 95%
c W  0.03  3 14 3 2 151 1 2625 787 93% 8 245 61 95%
c e  0.03  3 14 3 2 151 1 2963 1098 92% 9 236 52 81%
c ^  0.03  3 14 3 2 151 1 2963 1098 92% 9 236 52 81%
c
c  seconds  switched  rate        trail  variables
c         MB reductions conflicts    glue    remaining
c          level restarts   redundant irredundant
c
c -  0.03  3 15 3 3 151 1 3418 207 92% 9 236 52 81%
c i  0.04  3 14 3 3 152 1 3980 725 90% 9 236 51 80%
c ]  0.04  3 14 4 3 152 1 4086 828 90% 9 236 51 80%
c {  0.04  3 8 4 3 152 2 4086 828 94% 5 236 51 80%
c i  0.04  3 8 4 3 196 2 4289 1021 93% 5 236 50 78%
c u  0.04  3 8 4 3 198 2 4306 373 93% 5 236 50 78%
c v  0.04  3 8 4 3 198 2 4306 367 93% 5 236 50 78%
c i  0.05  3 8 4 3 243 2 4684 742 93% 5 236 49 77%
c -  0.05  3 8 4 4 286 2 5151 622 93% 5 213 49 77%
c i  0.05  3 7 4 4 286 2 5220 690 93% 5 213 48 75%
c }  0.06  3 7 5 4 286 2 5260 728 93% 5 213 48 75%
c [  0.06  3 14 5 4 286 1 5260 728 90% 9 213 48 75%
c I  0.06  3 14 5 4 286 1 5260 728 90% 9 213 48 75%
c ^  0.06  3 13 5 4 286 1 5822 1227 90% 9 207 48 75%
c i  0.06  3 13 5 4 286 1 6146 1088 90% 9 207 39 61%
c i  0.07  3 13 5 4 286 1 6231 1163 89% 9 207 29 45%
c i  0.07  3 13 5 4 286 1 6232 1163 89% 9 207 28 44%
c i  0.07  3 13 5 4 286 1 6242 1169 89% 9 207 22 34%
c i  0.07  3 13 5 4 286 1 6246 1172 89% 9 207 15 23%
c ]  0.07  3 13 5 4 286 1 6248 1172 89% 9 207  0 0%
c
c  seconds switched  rate         trail  variables
c         MB reductions conflicts    glue   remaining
c          level restarts  redundant irredundant
c
c 0  0.07  3 7 5 4 286 2 6248 1172 93% 5 207  0 0%
c
c ---- [ result ] ------------------------------------------------------------
c
s UNSATISFIABLE
c
c ---- [ profiling ] ---------------------------------------------------------
c
c           0.06   90.31 %  search
c           0.03   47.76 %  stable
c           0.03   42.41 %  focused
c           0.01    9.37 %  simplify
c           0.00    7.00 %  probe
c           0.00    4.44 %  vivify
c           0.00    2.13 %  eliminate
c           0.00    1.42 %  reduce
c           0.00    1.26 %  substitute
c           0.00    1.01 %  sweep
c           0.00    0.27 %  backbone
c           0.00    0.24 %  walking
c           0.00    0.16 %  parse
c           0.00    0.10 %  subsume
c           0.00    0.05 %  warmup
c =============================================
c           0.07  100.00 %  total
c
c ---- [ statistics ] --------------------------------------------------------
c
c conflicts:                             6248            93827.90 per second
c decisions:                             9374                1.50 per conflict
c eliminated:                               9               14 %  variables
c propagations:                        100228          1505151    per second
c reductions:                               4             1562    interval
c rephased:                                 3             2083    interval
c restarts:                               286               21.85 interval
c strengthened:                            39               27 %  checks
c subsumed:                                11                7 %  checks
c vivified:                               681               90 %  checks
c walk_improved:                            1              100 %  walks
c walks:                                    1             6248    interval
c
c ---- [ resources ] ---------------------------------------------------------
c
c maximum-resident-set-size:          2949120 bytes          3 MB
c process-time:                                              0.07 seconds
c
c ---- [ shutting down ] -----------------------------------------------------
c
c exit 20
